
Gurobi 9.0.1 (linux64) logging started Thu Apr 30 05:57:52 2020

Gurobi Optimizer version 9.0.1 build v9.0.1rc0 (linux64)
Optimize a model with 872 rows, 990 columns and 6936 nonzeros
Model fingerprint: 0xabbefbbf
Variable types: 0 continuous, 990 integer (980 binary)
Coefficient statistics:
  Matrix range     [1e+00, 5e+00]
  Objective range  [1e+00, 1e+02]
  Bounds range     [1e+00, 1e+00]
  RHS range        [1e+00, 1e+00]

User MIP start produced solution with objective 568 (0.00s)
Loaded user MIP start with objective 568

Presolve removed 208 rows and 360 columns
Presolve time: 0.06s
Presolved: 664 rows, 630 columns, 4902 nonzeros
Variable types: 0 continuous, 630 integer (622 binary)

Root relaxation: objective 4.060936e+02, 511 iterations, 0.02 seconds

    Nodes    |    Current Node    |     Objective Bounds      |     Work
 Expl Unexpl |  Obj  Depth IntInf | Incumbent    BestBd   Gap | It/Node Time

     0     0  406.09360    0  238  568.00000  406.09360  28.5%     -    0s
     0     0  415.89471    0  247  568.00000  415.89471  26.8%     -    0s
     0     0  417.46153    0  238  568.00000  417.46153  26.5%     -    0s
     0     0  418.31812    0  241  568.00000  418.31812  26.4%     -    0s
     0     0  418.31832    0  240  568.00000  418.31832  26.4%     -    0s
     0     0  424.38660    0  260  568.00000  424.38660  25.3%     -    0s
     0     0  425.09852    0  268  568.00000  425.09852  25.2%     -    0s
     0     0  425.20689    0  270  568.00000  425.20689  25.1%     -    0s
     0     0  425.20867    0  267  568.00000  425.20867  25.1%     -    0s
     0     0  428.94375    0  290  568.00000  428.94375  24.5%     -    0s
H    0     0                     481.0000000  428.94375  10.8%     -    0s
     0     0  429.43533    0  279  481.00000  429.43533  10.7%     -    0s
     0     0  429.53613    0  285  481.00000  429.53613  10.7%     -    0s
     0     0  429.53637    0  283  481.00000  429.53637  10.7%     -    0s
     0     0  431.29417    0  287  481.00000  431.29417  10.3%     -    0s
     0     0  431.54972    0  289  481.00000  431.54972  10.3%     -    0s
     0     0  431.58470    0  283  481.00000  431.58470  10.3%     -    0s
     0     0  431.63192    0  289  481.00000  431.63192  10.3%     -    0s
     0     0  431.66930    0  292  481.00000  431.66930  10.3%     -    0s
     0     0  431.67972    0  295  481.00000  431.67972  10.3%     -    0s
     0     0  433.04431    0  297  481.00000  433.04431  10.0%     -    1s
     0     0  433.20635    0  295  481.00000  433.20635  9.94%     -    1s
     0     0  433.21177    0  297  481.00000  433.21177  9.94%     -    1s
     0     0  434.38880    0  273  481.00000  434.38880  9.69%     -    1s
     0     0  434.43650    0  262  481.00000  434.43650  9.68%     -    1s
     0     0  434.55253    0  268  481.00000  434.55253  9.66%     -    1s
     0     0  434.56598    0  271  481.00000  434.56598  9.65%     -    1s
     0     0  435.28208    0  289  481.00000  435.28208  9.50%     -    1s
     0     0  435.30078    0  291  481.00000  435.30078  9.50%     -    1s
     0     0  435.35649    0  290  481.00000  435.35649  9.49%     -    1s
     0     0  435.35649    0  290  481.00000  435.35649  9.49%     -    1s
     0     0  435.82891    0  238  481.00000  435.82891  9.39%     -    1s
H    0     0                     480.0000000  435.82891  9.20%     -    1s
     0     0  435.82891    0  268  480.00000  435.82891  9.20%     -    1s
     0     0  435.82891    0  277  480.00000  435.82891  9.20%     -    1s
     0     0  435.82891    0  270  480.00000  435.82891  9.20%     -    1s
     0     0  435.82891    0  270  480.00000  435.82891  9.20%     -    1s
     0     0  435.82891    0  270  480.00000  435.82891  9.20%     -    1s
     0     0  435.82891    0  298  480.00000  435.82891  9.20%     -    1s
     0     0  435.82891    0  299  480.00000  435.82891  9.20%     -    1s
     0     0  435.82891    0  288  480.00000  435.82891  9.20%     -    2s
     0     0  435.84537    0  307  480.00000  435.84537  9.20%     -    2s
     0     0  435.85107    0  309  480.00000  435.85107  9.20%     -    2s
     0     0  438.00734    0  264  480.00000  438.00734  8.75%     -    2s
     0     0  438.28420    0  291  480.00000  438.28420  8.69%     -    2s
     0     0  438.34869    0  277  480.00000  438.34869  8.68%     -    2s
     0     0  438.36182    0  239  480.00000  438.36182  8.67%     -    2s
     0     0  439.52335    0  238  480.00000  439.52335  8.43%     -    2s
     0     0  439.57497    0  278  480.00000  439.57497  8.42%     -    2s
     0     0  439.57780    0  276  480.00000  439.57780  8.42%     -    2s
     0     0  439.67402    0  240  480.00000  439.67402  8.40%     -    2s
     0     0  439.67402    0  239  480.00000  439.67402  8.40%     -    2s
     0     0  439.87848    0  235  480.00000  439.87848  8.36%     -    2s
     0     0  439.87848    0  268  480.00000  439.87848  8.36%     -    2s
     0     0  439.87848    0  274  480.00000  439.87848  8.36%     -    3s
     0     0  439.87848    0  284  480.00000  439.87848  8.36%     -    3s
     0     0  439.87848    0  285  480.00000  439.87848  8.36%     -    3s
     0     0  439.87848    0  288  480.00000  439.87848  8.36%     -    3s
     0     0  439.87848    0  291  480.00000  439.87848  8.36%     -    3s
     0     0  439.87848    0  285  480.00000  439.87848  8.36%     -    3s
     0     0  439.87848    0  279  480.00000  439.87848  8.36%     -    3s
     0     0  439.87848    0  289  480.00000  439.87848  8.36%     -    3s
     0     0  439.87848    0  287  480.00000  439.87848  8.36%     -    3s
     0     0  439.87848    0  290  480.00000  439.87848  8.36%     -    3s
     0     0  440.19672    0  267  480.00000  440.19672  8.29%     -    3s
     0     0  440.33163    0  279  480.00000  440.33163  8.26%     -    3s
     0     0  440.36178    0  233  480.00000  440.36178  8.26%     -    3s
     0     0  440.36407    0  239  480.00000  440.36407  8.26%     -    3s
     0     0  440.37094    0  241  480.00000  440.37094  8.26%     -    3s
     0     0  440.37094    0  241  480.00000  440.37094  8.26%     -    3s
H    0     0                     475.0000000  440.37094  7.29%     -    3s
H    0     0                     474.0000000  440.63264  7.04%     -    3s
     0     2  440.63264    0  241  474.00000  440.63264  7.04%     -    3s
*   27    15              16     470.0000000  454.70455  3.25%   172    4s
H   83    15                     466.0000000  461.56825  0.95%  98.7    4s

Cutting planes:
  Gomory: 3
  MIR: 20
  Zero half: 33
  Mod-K: 1
  RLT: 106

Explored 147 nodes (22813 simplex iterations) in 4.85 seconds
Thread count was 1 (of 40 available processors)

Solution count 7: 466 470 474 ... 568

Optimal solution found (tolerance 1.00e-04)
Best objective 4.660000000000e+02, best bound 4.660000000000e+02, gap 0.0000%

User-callback calls 1555, time in user-callback 0.00 sec
